(set-info :smt-lib-version 2.6)
(set-logic QF_SLIA)
(set-info :source |
Generated by: Dmitry Blotsky1, Federico Mora, Murphy Berzish, Yunhui Zheng, Ifaz Kabir, Vijay Ganesh, Zhengyang Lu
Generated on: 2018-01-24
Generator: StringFuzz
Application: Evaluate string solvers
Target solver: Z3str3, CVC4, Z3str2, Norn
Publications: Blotsky, D., Mora, F., Berzish, M., Zheng, Y., Kabir, I., & Ganesh, V. (2018). Stringfuzz: A fuzzer for string solvers. In CAV 2018.
|)
(set-info :license "https://creativecommons.org/licenses/by/4.0/")
(set-info :category "random")
(set-info :status unknown)

(declare-const x String)
(declare-const y String)
(assert (str.in_re x (re.* (str.to_re "aK1AO4xwGa6586u$(\\'\t'%:b8;+Q{n%H'\x0c'D:O'\t'8K@F'\x0b'Y'zc' ',h'TR[2+(/K(W*}'\x0b'|[lsl"))))
(assert (str.in_re y (re.* (str.to_re "aauI7'\x0b':-y-bbc'\x0c'K}!_?cc/^1(.QQG1;ek@%>41f8G(lN!(d_}&q"))))
(assert (= (str.to.int x) 0))
(check-sat)

(exit)
